n=4;
row=8;
column=8;
Board=[|4,0,2,0,3,4,0,1|0,0,3,0,0,0,0,4|3,4,1,2,4,0,0,0|0,2,0,3,0,0,4,3|0,0,1,2,0,0,1,0|0,4,0,0,0,0,0,3|4,0,0,0,3,0,0,0|3,0,4,0,0,2,0,1|];
Region=[|1,2,3,3,3,3,4,5|1,2,6,6,6,6,4,5|1,2,7,7,7,7,4,5|1,2,8,9,10,11,4,5|12,13,8,9,10,11,14,15|12,13,8,9,10,11,14,15|12,13,8,9,10,11,14,15|12,13,16,16,16,16,14,15|];
